
******************************************************************************
This program contains Ipopt, a library for large-scale nonlinear optimization.
 Ipopt is released as open source code under the Eclipse Public License (EPL).
         For more information visit http://projects.coin-or.org/Ipopt

This version of Ipopt was compiled from source code available at
    https://github.com/IDAES/Ipopt as part of the Institute for the Design of
    Advanced Energy Systems Process Systems Engineering Framework (IDAES PSE
    Framework) Copyright (c) 2018-2019. See https://github.com/IDAES/idaes-pse.

This version of Ipopt was compiled using HSL, a collection of Fortran codes
    for large-scale scientific computation.  All technical papers, sales and
    publicity material resulting from use of the HSL codes within IPOPT must
    contain the following acknowledgement:
        HSL, a collection of Fortran codes for large-scale scientific
        computation. See http://www.hsl.rl.ac.uk.
******************************************************************************

This is Ipopt version 3.13.2, running with linear solver ma27.

Number of nonzeros in equality constraint Jacobian...:     1172
Number of nonzeros in inequality constraint Jacobian.:        0
Number of nonzeros in Lagrangian Hessian.............:     1333

Total number of variables............................:      465
                     variables with only lower bounds:      124
                variables with lower and upper bounds:      279
                     variables with only upper bounds:        0
Total number of equality constraints.................:      462
Total number of inequality constraints...............:        0
        inequality constraints with only lower bounds:        0
   inequality constraints with lower and upper bounds:        0
        inequality constraints with only upper bounds:        0

iter    objective    inf_pr   inf_du lg(mu)  ||d||  lg(rg) alpha_du alpha_pr  ls
   0  0.0000000e+00 9.29e-01 2.84e-14  -1.0 0.00e+00    -  0.00e+00 0.00e+00   0
   1  8.2988928e-02 5.33e-01 2.90e+03  -1.0 7.26e+04    -  5.46e-01 4.95e-01h  2
   2  2.6439570e-01 1.15e+00 1.08e+04  -1.0 3.94e+04    -  6.70e-01 7.32e-01h  1
   3  3.7531098e-01 5.86e-02 6.43e+02  -1.0 1.31e+04    -  4.88e-01 9.90e-01h  1
   4  3.7849972e-01 1.32e-02 3.78e+02  -1.0 3.69e+02    -  9.82e-01 9.90e-01h  1
   5  3.7764588e-01 2.92e-03 4.52e+02  -1.0 4.76e+02    -  9.89e-01 9.90e-01h  1
   6  3.7715259e-01 2.90e-03 7.18e+07  -1.0 1.06e+04    -  9.88e-01 1.55e-02h  7
   7  3.7650967e-01 2.89e-03 1.44e+08  -1.0 1.32e+04    -  9.90e-01 1.55e-02h  7
   8  3.7589002e-01 2.87e-03 2.17e+08  -1.0 1.32e+04    -  1.00e+00 1.55e-02h  7
   9  3.7530576e-01 2.85e-03 2.89e+08  -1.0 1.30e+04    -  1.00e+00 1.55e-02h  7
iter    objective    inf_pr   inf_du lg(mu)  ||d||  lg(rg) alpha_du alpha_pr  ls
  10  3.7474859e-01 2.83e-03 3.62e+08  -1.0 1.29e+04    -  1.00e+00 1.55e-02h  7
  11  3.7422189e-01 2.81e-03 4.35e+08  -1.0 1.27e+04    -  1.00e+00 1.55e-02h  7
  12  3.7372212e-01 2.80e-03 5.08e+08  -1.0 1.26e+04    -  1.00e+00 1.55e-02h  7
  13  3.7324983e-01 2.78e-03 5.81e+08  -1.0 1.24e+04    -  1.00e+00 1.55e-02h  7
  14  3.7280323e-01 2.76e-03 6.55e+08  -1.0 1.23e+04    -  1.00e+00 1.55e-02h  7
  15  3.8117806e-01 2.58e-03 7.40e+06  -1.0 1.21e+04    -  1.00e+00 9.90e-01H  1
  16  3.8435887e-01 2.26e-03 8.50e+07  -1.0 1.69e+03    -  1.00e+00 9.90e-01H  1
  17  3.9087669e-01 9.58e-04 8.50e+09  -1.0 1.38e+03    -  1.00e+00 9.90e-01H  1
In iteration 17, 31 Slacks too small, adjusting variable bounds
  18  3.9416547e-01 3.05e-04 8.50e+11  -1.0 6.34e+02    -  1.00e+00 9.90e-01H  1
  19  3.9470799e-01 7.86e-05 7.81e-03  -1.0 9.67e+01    -  1.00e+00 1.00e+00h  1
iter    objective    inf_pr   inf_du lg(mu)  ||d||  lg(rg) alpha_du alpha_pr  ls
  20  3.7585538e-01 1.26e-02 2.13e+10  -5.7 6.30e+03    -  9.75e-01 1.00e+00f  1
  21  3.5861942e-01 6.77e-01 7.55e+08  -5.7 3.88e+03    -  9.65e-01 1.00e+00h  1
  22  3.5889605e-01 2.97e-02 1.53e-01  -5.7 2.25e+02    -  1.00e+00 5.18e-01h  1
  23  3.5892847e-01 1.03e-05 2.00e-05  -5.7 1.63e+01    -  1.00e+00 1.00e+00h  1
  24  3.5892768e-01 4.34e-09 2.47e-08  -8.6 2.16e-01    -  1.00e+00 1.00e+00h  1

Number of Iterations....: 24

                                   (scaled)                 (unscaled)
Objective...............:   3.5892767617004767e-01    3.5892767617004767e-01
Dual infeasibility......:   2.4676410248503089e-08    2.4676410248503089e-08
Constraint violation....:   4.3447568875976117e-09    4.3447568875976117e-09
Complementarity.........:   2.7703542514575499e-09    2.7703542514575499e-09
Overall NLP error.......:   4.3447568875976117e-09    2.4676410248503089e-08


Number of objective function evaluations             = 125
Number of objective gradient evaluations             = 25
Number of equality constraint evaluations            = 125
Number of inequality constraint evaluations          = 0
Number of equality constraint Jacobian evaluations   = 25
Number of inequality constraint Jacobian evaluations = 0
Number of Lagrangian Hessian evaluations             = 24
Total CPU secs in IPOPT (w/o function evaluations)   =      0.052
Total CPU secs in NLP function evaluations           =      1.195

EXIT: Optimal Solution Found.
